11
-1 14 15 -1 31 93 30 52 20 75 70 
12 -1 77 22 -1 57 50 47 83 9 47 
93 55 -1 98 -1 70 4 12 -1 7 73 
13 96 -1 -1 80 42 73 12 21 78 -1 
100 31 -1 31 -1 30 84 89 56 15 42 
89 -1 66 94 37 -1 82 74 57 2 70 
71 9 95 15 64 22 -1 55 45 94 -1 
-1 29 66 81 78 86 74 -1 -1 95 61 
88 -1 65 83 -1 59 52 -1 -1 28 65 
81 11 56 46 60 63 1 -1 92 -1 91 
10 23 96 12 54 72 16 93 -1 3 -1 
